
Gurobi 10.0.2 (mac64[x86]) logging started Sun Jul 23 11:32:31 2023

Set parameter Username
Academic license - for non-commercial use only - expires 2024-07-16
Gurobi Optimizer version 10.0.2 build v10.0.2rc0 (mac64[x86])

CPU model: Intel(R) Core(TM) i9-9880H CPU @ 2.30GHz
Thread count: 8 physical cores, 16 logical processors, using up to 16 threads

Optimize a model with 2 rows, 3 columns and 6 nonzeros
Model fingerprint: 0x5f73eeb7
Model has 5 quadratic objective terms
Coefficient statistics:
  Matrix range     [1e+00, 3e+00]
  Objective range  [2e+00, 2e+00]
  QObjective range [2e+00, 2e+00]
  Bounds range     [0e+00, 0e+00]
  RHS range        [1e+00, 4e+00]
Presolve time: 0.00s
Presolved: 2 rows, 3 columns, 6 nonzeros
Presolved model has 5 quadratic objective terms
Ordering time: 0.00s

Barrier statistics:
 Free vars  : 2
 AA' NZ     : 6.000e+00
 Factor NZ  : 1.000e+01
 Factor Ops : 3.000e+01 (less than 1 second per iteration)
 Threads    : 1

                  Objective                Residual
Iter       Primal          Dual         Primal    Dual     Compl     Time
   0   1.68963391e+05 -1.66963095e+05  1.50e+03 3.54e-07  1.00e+06     0s
   1   3.00548747e+05 -2.99596220e+05  1.50e-03 3.98e-13  1.20e+05     0s
   2   4.41460732e+04 -4.37809634e+04  1.50e-09 2.84e-14  1.76e+04     0s
   3   6.51077751e+03 -6.37083737e+03  4.97e-14 2.13e-14  2.58e+03     0s
   4   9.70225326e+02 -9.16577627e+02  1.78e-14 2.13e-14  3.77e+02     0s
   5   1.48299448e+02 -1.27684563e+02  3.55e-15 1.78e-15  5.52e+01     0s
   6   2.40217040e+01 -1.59557868e+01  8.88e-16 1.78e-15  8.00e+00     0s
   7   4.46822413e+00 -8.84594171e-01  2.22e-16 2.22e-16  1.07e+00     0s
   8   1.88323422e+00  1.44975872e+00  5.55e-17 1.11e-16  8.67e-02     0s
   9   1.72000759e+00  1.69459911e+00  2.22e-16 2.22e-16  5.08e-03     0s
  10   1.71429416e+00  1.71413641e+00  2.22e-16 0.00e+00  3.15e-05     0s
  11   1.71428572e+00  1.71428557e+00  2.78e-17 1.11e-16  3.15e-08     0s
  12   1.71428571e+00  1.71428571e+00  2.22e-16 1.11e-16  3.16e-11     0s

Barrier solved model in 12 iterations and 0.00 seconds (0.00 work units)
Optimal objective 1.71428571e+00


Gurobi 10.0.2 (mac64[x86]) logging started Sun Jul 23 11:40:19 2023

Set parameter Username
Academic license - for non-commercial use only - expires 2024-07-16
Gurobi Optimizer version 10.0.2 build v10.0.2rc0 (mac64[x86])

CPU model: Intel(R) Core(TM) i9-9880H CPU @ 2.30GHz
Thread count: 8 physical cores, 16 logical processors, using up to 16 threads

Optimize a model with 2 rows, 3 columns and 6 nonzeros
Model fingerprint: 0x5f73eeb7
Model has 5 quadratic objective terms
Coefficient statistics:
  Matrix range     [1e+00, 3e+00]
  Objective range  [2e+00, 2e+00]
  QObjective range [2e+00, 2e+00]
  Bounds range     [0e+00, 0e+00]
  RHS range        [1e+00, 4e+00]
Presolve time: 0.00s
Presolved: 2 rows, 3 columns, 6 nonzeros
Presolved model has 5 quadratic objective terms
Ordering time: 0.00s

Barrier statistics:
 Free vars  : 2
 AA' NZ     : 6.000e+00
 Factor NZ  : 1.000e+01
 Factor Ops : 3.000e+01 (less than 1 second per iteration)
 Threads    : 1

                  Objective                Residual
Iter       Primal          Dual         Primal    Dual     Compl     Time
   0   1.68963391e+05 -1.66963095e+05  1.50e+03 3.54e-07  1.00e+06     0s
   1   3.00548747e+05 -2.99596220e+05  1.50e-03 3.98e-13  1.20e+05     0s
   2   4.41460732e+04 -4.37809634e+04  1.50e-09 2.84e-14  1.76e+04     0s
   3   6.51077751e+03 -6.37083737e+03  4.97e-14 2.13e-14  2.58e+03     0s
   4   9.70225326e+02 -9.16577627e+02  1.78e-14 2.13e-14  3.77e+02     0s
   5   1.48299448e+02 -1.27684563e+02  3.55e-15 1.78e-15  5.52e+01     0s
   6   2.40217040e+01 -1.59557868e+01  8.88e-16 1.78e-15  8.00e+00     0s
   7   4.46822413e+00 -8.84594171e-01  2.22e-16 2.22e-16  1.07e+00     0s
   8   1.88323422e+00  1.44975872e+00  5.55e-17 1.11e-16  8.67e-02     0s
   9   1.72000759e+00  1.69459911e+00  2.22e-16 2.22e-16  5.08e-03     0s
  10   1.71429416e+00  1.71413641e+00  2.22e-16 0.00e+00  3.15e-05     0s
  11   1.71428572e+00  1.71428557e+00  2.78e-17 1.11e-16  3.15e-08     0s
  12   1.71428571e+00  1.71428571e+00  2.22e-16 1.11e-16  3.16e-11     0s

Barrier solved model in 12 iterations and 0.00 seconds (0.00 work units)
Optimal objective 1.71428571e+00

